100
128
10
5
9
8
36
36
27
32
61
27
6
24
20
20
1
45
48
24
58
4
36
21
53
1
21
23
43
27
33
1
39
55
16
21
39
46
21
32
37
16
31
23
40
19
7
44
58
54
48
29
1
63
42
62
50
44
43
53
1
43
58
44
54
39
62
27
48
7
29
1
55
63
34
58
2
50
33
41
1
1
60
34
43
5
27
7
35
2
4
3
7
42
8
3
34
21
1
5
32
4